
m = 12;

n = 12;

Amin = 57;

Amax = 72;

B = 2736;

lambda = 20.00;

c = 
[[5,5,3,9,10,2,3,4,6,3,10,2],
[5,10,7,7,2,4,9,2,6,8,7,2],
[8,8,2,3,10,8,2,4,9,10,10,8],
[2,2,9,6,2,8,6,5,5,10,10,5],
[10,8,6,5,3,9,6,9,4,4,10,3],
[10,8,3,9,8,2,4,6,10,2,10,8],
[7,4,2,10,10,8,3,9,5,5,10,4],
[10,5,2,3,7,8,4,5,4,3,10,10],
[2,3,5,8,2,2,5,7,2,5,4,8],
[2,3,6,3,6,6,5,5,7,3,4,2],
[7,4,3,9,6,2,6,6,3,7,3,3],
[8,6,6,6,7,7,4,5,8,6,6,2]];
